% Generated FlatZinc statistics:
%%%mzn-stat: paths=0
%%%mzn-stat: flatBoolVars=962
%%%mzn-stat: flatIntVars=155
%%%mzn-stat: flatBoolConstraints=290
%%%mzn-stat: flatIntConstraints=1100
%%%mzn-stat: evaluatedReifiedConstraints=98
%%%mzn-stat: evaluatedHalfReifiedConstraints=864
%%%mzn-stat: eliminatedLinearConstraints=1
%%%mzn-stat: method="minimize"
%%%mzn-stat: flatTime=0.106465
%%%mzn-stat-end
end = 120
carga_por_operario = [120, 0, 0, 0]
desbalance = 120
Job 1: 103(op:1) 104(op:1) 108(op:1) 110(op:1) 117(op:1)
Job 2:  83(op:1)  88(op:1)  92(op:1)  99(op:1) 100(op:1)
Job 3:  29(op:1)  32(op:1)  40(op:1)  47(op:1)  53(op:1)
Job 4:  59(op:1)  67(op:1)  73(op:1)  76(op:1)  79(op:1)
Job 5:   0(op:1)   8(op:1)  13(op:1)  19(op:1)  23(op:1)
----------
%%%mzn-stat: initTime=0.00485115
%%%mzn-stat: solveTime=59.8931
%%%mzn-stat: solutions=1
%%%mzn-stat: variables=1118
%%%mzn-stat: propagators=1390
%%%mzn-stat: propagations=801706349
%%%mzn-stat: nodes=8977618
%%%mzn-stat: failures=4488791
%%%mzn-stat: restarts=0
%%%mzn-stat: peakDepth=69
%%%mzn-stat-end
%%%mzn-stat: nSolutions=1
%%%mzn-stat-end
